
Gurobi 10.0.1 (linux64) logging started Sun Nov 26 15:37:30 2023

Set parameter LogFile to value "ArtificialInstance/ExperimentV2/S3T4K3/BaSp/gurobi1.txt"
Gurobi Optimizer version 10.0.1 build v10.0.1rc0 (linux64)

CPU model: AMD EPYC 7H12 64-Core Processor, instruction set [SSE2|AVX|AVX2]
Thread count: 128 physical cores, 128 logical processors, using up to 32 threads

Academic license 656792 - for non-commercial use only - registered to b.___@student.vu.nl
Optimize a model with 4020 rows, 6080 columns and 20640 nonzeros
Model fingerprint: 0x0e0790a4
Variable types: 0 continuous, 6080 integer (6080 binary)
Coefficient statistics:
  Matrix range     [1e+00, 1e+00]
  Objective range  [1e+00, 2e+01]
  Bounds range     [1e+00, 1e+00]
  RHS range        [1e+00, 1e+00]
Found heuristic solution: objective 641.0328958
Presolve time: 0.03s
Presolved: 4020 rows, 6080 columns, 20640 nonzeros
Variable types: 0 continuous, 6080 integer (6080 binary)

Root relaxation: objective 5.131891e+01, 3261 iterations, 0.11 seconds (0.10 work units)

    Nodes    |    Current Node    |     Objective Bounds      |     Work
 Expl Unexpl |  Obj  Depth IntInf | Incumbent    BestBd   Gap | It/Node Time

     0     0   51.31891    0  862  641.03290   51.31891  92.0%     -    0s
H    0     0                     327.5119276   51.31891  84.3%     -    0s
H    0     0                     106.0099848   51.31891  51.6%     -    0s
H    0     0                      91.4303517   57.71907  36.9%     -    0s
     0     0   57.71907    0 1341   91.43035   57.71907  36.9%     -    0s
H    0     0                      87.5387004   57.71907  34.1%     -    0s
H    0     0                      84.2908426   61.00328  27.6%     -    0s
     0     0   61.00328    0 1149   84.29084   61.00328  27.6%     -    0s
     0     0   61.09885    0 1199   84.29084   61.09885  27.5%     -    1s
     0     0   61.09885    0 1197   84.29084   61.09885  27.5%     -    1s
H    0     0                      72.5748502   64.40598  11.3%     -    1s
     0     0   64.40598    0 1244   72.57485   64.40598  11.3%     -    1s
H    0     0                      71.4661397   64.40598  9.88%     -    1s
     0     0   64.42596    0 1249   71.46614   64.42596  9.85%     -    1s
     0     0   64.42596    0 1248   71.46614   64.42596  9.85%     -    1s
     0     0   64.91651    0 1213   71.46614   64.91651  9.16%     -    1s
     0     0   64.95812    0 1279   71.46614   64.95812  9.11%     -    1s
     0     0   64.96388    0 1268   71.46614   64.96388  9.10%     -    2s
     0     0   64.96410    0 1273   71.46614   64.96410  9.10%     -    2s
     0     0   65.49969    0 1288   71.46614   65.49969  8.35%     -    2s
     0     0   65.54182    0 1269   71.46614   65.54182  8.29%     -    2s
     0     0   65.54182    0 1274   71.46614   65.54182  8.29%     -    2s
     0     0   65.63161    0 1281   71.46614   65.63161  8.16%     -    2s
     0     0   65.66422    0 1324   71.46614   65.66422  8.12%     -    2s
     0     0   65.66462    0 1292   71.46614   65.66462  8.12%     -    2s
     0     0   65.75574    0 1337   71.46614   65.75574  7.99%     -    2s
     0     0   65.78998    0 1336   71.46614   65.78998  7.94%     -    2s
     0     0   65.79782    0 1309   71.46614   65.79782  7.93%     -    2s
     0     0   65.80239    0 1348   71.46614   65.80239  7.93%     -    2s
     0     0   65.81256    0 1356   71.46614   65.81256  7.91%     -    2s
     0     0   65.81359    0 1376   71.46614   65.81359  7.91%     -    3s
     0     0   66.03715    0 1257   71.46614   66.03715  7.60%     -    3s
     0     0   66.04613    0 1287   71.46614   66.04613  7.58%     -    3s
     0     0   66.04613    0 1294   71.46614   66.04613  7.58%     -    3s
     0     0   66.33379    0 1233   71.46614   66.33379  7.18%     -    3s
     0     0   66.34910    0 1214   71.46614   66.34910  7.16%     -    3s
     0     0   66.36357    0 1215   71.46614   66.36357  7.14%     -    3s
     0     0   66.36486    0 1238   71.46614   66.36486  7.14%     -    3s
     0     0   66.67493    0 1217   71.46614   66.67493  6.70%     -    3s
     0     0   66.67493    0 1296   71.46614   66.67493  6.70%     -    3s
     0     0   66.67493    0 1277   71.46614   66.67493  6.70%     -    4s
     0     0   66.71495    0 1281   71.46614   66.71495  6.65%     -    4s
     0     0   66.71495    0 1215   71.46614   66.71495  6.65%     -    4s
     0     2   66.71495    0 1203   71.46614   66.71495  6.65%     -    4s
     1     4   66.71495    1 1132   71.46614   66.71495  6.65%  1652    5s

Cutting planes:
  Gomory: 7
  Zero half: 108
  RLT: 187

Explored 112 nodes (59582 simplex iterations) in 6.68 seconds (5.43 work units)
Thread count was 32 (of 128 available processors)

Solution count 8: 71.4661 72.5749 84.2908 ... 641.033

Optimal solution found (tolerance 1.00e-04)
Best objective 7.146613969144e+01, best bound 7.146613969144e+01, gap 0.0000%
